50
100
95
92
87
87
85
84
83
79
77
77
75
73
69
68
65
63
63
62
61
58
57
52
50
44
43
40
40
38
38
38
35
33
33
32
31
29
27
24
24
22
19
19
18
16
14
11
6
4
3
2
